s SATISFIABLE
s SATISFIABLE
s UNKNOWN
s UNKNOWN
s UNKNOWN
s UNKNOWN
s UNSATISFIABLE
s UNSATISFIABLE
s UNSATISFIABLE
s UNSATISFIABLE
s UNSATISFIABLE
s UNSATISFIABLE
s UNSATISFIABLE
s UNSATISFIABLE
s SATISFIABLE
s UNKNOWN
s UNKNOWN
s SATISFIABLE
s SATISFIABLE
s SATISFIABLE
s UNKNOWN
s UNKNOWN
s UNSATISFIABLE
s UNKNOWN
s UNSATISFIABLE
s UNKNOWN
s UNSATISFIABLE
s UNSATISFIABLE
s UNSATISFIABLE
s SATISFIABLE
